false false false
presolving:
presolving (0 rounds: 0 fast, 0 medium, 0 exhaustive):
 0 deleted vars, 0 deleted constraints, 0 added constraints, 0 tightened bounds, 0 added holes, 0 changed sides, 0 changed coefficients
 0 implications, 0 cliques
presolved problem has 42 variables (42 bin, 0 int, 0 impl, 0 cont) and 34 constraints
     34 constraints of type <linear>
transformed objective value is always integral (scale: 1)
Presolving Time: 0.00

 time | node  | left  |LP iter|LP it/n|mem/heur|mdpt |vars |cons |rows |cuts |sepa|confs|strbr|  dualbound   | primalbound  |  gap   | compl. 
p 0.0s|     1 |     0 |     0 |     - |shiftand|   0 |  42 |  34 |  34 |   0 |  0 |   0 |   0 |      --      | 8.000000e+00 |    Inf | unknown
 time | node  | left  |LP iter|LP it/n|mem/heur|mdpt |vars |cons |rows |cuts |sepa|confs|strbr|  dualbound   | primalbound  |  gap   | compl. 
  0.0s|     1 |     0 |    17 |     - |   970k |   0 | 104 |  34 |  34 |   0 |  0 |   0 |   0 | 1.000000e+00 | 8.000000e+00 | 700.00%| unknown
 time | node  | left  |LP iter|LP it/n|mem/heur|mdpt |vars |cons |rows |cuts |sepa|confs|strbr|  dualbound   | primalbound  |  gap   | compl. 
 1430s|     1 |     0 |   263 |     - |  4909k |   0 |1336 |  34 |  34 |   0 |  0 |   0 |   0 | 7.000000e+00 | 8.000000e+00 |  14.29%| unknown
 time | node  | left  |LP iter|LP it/n|mem/heur|mdpt |vars |cons |rows |cuts |sepa|confs|strbr|  dualbound   | primalbound  |  gap   | compl. 
 1430s|     1 |     2 |   499 |     - |  5342k |   0 |1336 |  34 |  34 |   0 |  1 |   0 |   0 | 7.000000e+00 | 8.000000e+00 |  14.29%| unknown
 time | node  | left  |LP iter|LP it/n|mem/heur|mdpt |vars |cons |rows |cuts |sepa|confs|strbr|  dualbound   | primalbound  |  gap   | compl. 
 1890s|     2 |     3 |   511 |  12.0 |  5496k |   1 |1337 |  34 |  34 |   0 |  1 |   0 |   0 | 7.000000e+00 | 8.000000e+00 |  14.29%| unknown
 time | node  | left  |LP iter|LP it/n|mem/heur|mdpt |vars |cons |rows |cuts |sepa|confs|strbr|  dualbound   | primalbound  |  gap   | compl. 
 2049s|     3 |     4 |   527 |  14.0 |  5810k |   1 |1343 |  34 |  34 |   0 |  1 |   0 |   0 | 7.000000e+00 | 8.000000e+00 |  14.29%| unknown
 time | node  | left  |LP iter|LP it/n|mem/heur|mdpt |vars |cons |rows |cuts |sepa|confs|strbr|  dualbound   | primalbound  |  gap   | compl. 
 2094s|     4 |     5 |   536 |  12.3 |  6123k |   2 |1347 |  34 |  34 |   0 |  1 |   0 |   0 | 7.000000e+00 | 8.000000e+00 |  14.29%| unknown
 time | node  | left  |LP iter|LP it/n|mem/heur|mdpt |vars |cons |rows |cuts |sepa|confs|strbr|  dualbound   | primalbound  |  gap   | compl. 
 2123s|     5 |     6 |   542 |  10.8 |  6151k |   3 |1347 |  34 |  34 |   0 |  1 |   0 |   0 | 7.000000e+00 | 8.000000e+00 |  14.29%| unknown
 time | node  | left  |LP iter|LP it/n|mem/heur|mdpt |vars |cons |rows |cuts |sepa|confs|strbr|  dualbound   | primalbound  |  gap   | compl. 
 2180s|     6 |     7 |   604 |  21.0 |  6285k |   3 |1378 |  34 |  34 |   0 |  1 |   0 |   0 | 7.000000e+00 | 8.000000e+00 |  14.29%| unknown
 time | node  | left  |LP iter|LP it/n|mem/heur|mdpt |vars |cons |rows |cuts |sepa|confs|strbr|  dualbound   | primalbound  |  gap   | compl. 
 2265s|     7 |     8 |   669 |  28.3 |  6359k |   4 |1400 |  34 |  34 |   0 |  1 |   0 |   0 | 7.000000e+00 | 8.000000e+00 |  14.29%| unknown
 time | node  | left  |LP iter|LP it/n|mem/heur|mdpt |vars |cons |rows |cuts |sepa|confs|strbr|  dualbound   | primalbound  |  gap   | compl. 
 2278s|     8 |     9 |   673 |  24.9 |  6363k |   4 |1400 |  34 |  34 |   0 |  1 |   0 |   0 | 7.000000e+00 | 8.000000e+00 |  14.29%| unknown
 time | node  | left  |LP iter|LP it/n|mem/heur|mdpt |vars |cons |rows |cuts |sepa|confs|strbr|  dualbound   | primalbound  |  gap   | compl. 
 2292s|     9 |    10 |   694 |  24.4 |  6371k |   5 |1420 |  34 |  34 |   0 |  1 |   0 |   0 | 7.000000e+00 | 8.000000e+00 |  14.29%| unknown
 time | node  | left  |LP iter|LP it/n|mem/heur|mdpt |vars |cons |rows |cuts |sepa|confs|strbr|  dualbound   | primalbound  |  gap   | compl. 
 2299s|    10 |    11 |   699 |  22.2 |  6372k |   6 |1420 |  34 |  34 |   0 |  1 |   0 |   0 | 7.000000e+00 | 8.000000e+00 |  14.29%| unknown
 time | node  | left  |LP iter|LP it/n|mem/heur|mdpt |vars |cons |rows |cuts |sepa|confs|strbr|  dualbound   | primalbound  |  gap   | compl. 
 2309s|    11 |    12 |   718 |  21.9 |  6394k |   7 |1423 |  34 |  34 |   0 |  1 |   0 |   0 | 7.000000e+00 | 8.000000e+00 |  14.29%| unknown
 time | node  | left  |LP iter|LP it/n|mem/heur|mdpt |vars |cons |rows |cuts |sepa|confs|strbr|  dualbound   | primalbound  |  gap   | compl. 
 2337s|    12 |    13 |   728 |  20.8 |  6394k |   8 |1424 |  34 |  34 |   0 |  1 |   0 |   0 | 7.000000e+00 | 8.000000e+00 |  14.29%| unknown
 time | node  | left  |LP iter|LP it/n|mem/heur|mdpt |vars |cons |rows |cuts |sepa|confs|strbr|  dualbound   | primalbound  |  gap   | compl. 
 2346s|    13 |    14 |   729 |  19.2 |  6396k |   9 |1424 |  34 |  34 |   0 |  1 |   0 |   0 | 7.000000e+00 | 8.000000e+00 |  14.29%| unknown
 time | node  | left  |LP iter|LP it/n|mem/heur|mdpt |vars |cons |rows |cuts |sepa|confs|strbr|  dualbound   | primalbound  |  gap   | compl. 
d2350s|    14 |     0 |   817 |  24.5 |pscostdi|   9 |1433 |  34 |  34 |   0 |  1 |   0 |   0 | 7.000000e+00 | 7.000000e+00 |   0.00%| 100.00%

SCIP Status        : problem is solved [optimal solution found]
Solving Time (sec) : 2350.28
Solving Nodes      : 14
Primal Bound       : +7.00000000000000e+00 (3 solutions)
Dual Bound         : +7.00000000000000e+00
Gap                : 0.00 %
Running with parallel: False bidir: False symbreak: False
Number of Nodes:  34
47.73814370038673% holds
starting cheapest insertion heuristic
Heuristic without TSP improvement:  8
Heuristic without TSP improvement time:  0.1
Heuristic Sol:  8
Heuristic total time:  0.1
[[2, 28, 14, 17], [21, 8, 3, 15, 4, 7], [24, 11, 9, 19], [27, 16, 25, 1, 5], [33, 23, 13], [32, 0, 12, 30, 10, 26], [31, 6, 20], [29, 18, 22]]
Instance path:  /home/htc/mghannam/SCRATCH/lccp-rust/data/at62_ftv33.npcc
Timelimit:  7200
Heuristic without TSP improvement:  8
Heuristic without TSP improvement time:  0.1
Heuristic Sol:  8
Heuristic total time:  0.1
at 1 zero_duals: 26
at1, LP obj: 8.0 n_added_paths: 62
at 1 zero_duals: 26
at1, LP obj: 8.0 n_added_paths: 40
at 1 zero_duals: 18
at1, LP obj: 8.0 n_added_paths: 76
at 1 zero_duals: 7
at1, LP obj: 8.0 n_added_paths: 138
at 1 zero_duals: 7
Switching to elementary pricing
at1, LP obj: 7.679245283018867 n_added_paths: 905
at 1 zero_duals: 1
Switching to elementary pricing
at1, LP obj: 6.636363636363637 n_added_paths: 50
updated lowerbound from 1.0 to 6
at 1 zero_duals: 11
Switching to elementary pricing
at1, LP obj: 6.6 n_added_paths: 2
updated lowerbound from 6.0 to 7
at 1 zero_duals: 5
Switching to elementary pricing
at1, LP obj: 6.593023255813954 n_added_paths: 12
at 1 zero_duals: 4
Switching to elementary pricing
at1, LP obj: 6.586206896551724 n_added_paths: 4
at 1 zero_duals: 1
Switching to elementary pricing
at1, LP obj: 6.585551330798479 n_added_paths: 4
at 1 zero_duals: 1
Switching to elementary pricing
at1, LP obj: 6.584745762711864 n_added_paths: 1
at 1 zero_duals: 1
Switching to elementary pricing
at1, LP obj: 6.584745762711864 n_added_paths: 0
at 2 zero_duals: 2
Switching to elementary pricing
at2, LP obj: 6.590163934426229 n_added_paths: 1
at 2 zero_duals: 2
Switching to elementary pricing
at2, LP obj: 6.5897435897435885 n_added_paths: 0
at 3 zero_duals: 1
Switching to elementary pricing
at3, LP obj: 6.631578947368421 n_added_paths: 6
at 3 zero_duals: 1
Switching to elementary pricing
at3, LP obj: 6.622093023255814 n_added_paths: 0
at 5 zero_duals: 4
Switching to elementary pricing
at5, LP obj: 6.6000000000000005 n_added_paths: 4
at 5 zero_duals: 3
Switching to elementary pricing
at5, LP obj: 6.6 n_added_paths: 0
at 8 zero_duals: 3
Switching to elementary pricing
at8, LP obj: 6.6 n_added_paths: 0
at 9 zero_duals: 6
Switching to elementary pricing
at9, LP obj: 6.7272727272727275 n_added_paths: 30
at 9 zero_duals: 2
Switching to elementary pricing
at9, LP obj: 6.662650602409639 n_added_paths: 1
at 9 zero_duals: 2
Switching to elementary pricing
at9, LP obj: 6.661764705882353 n_added_paths: 0
at 12 zero_duals: 2
Switching to elementary pricing
at12, LP obj: 6.818181818181818 n_added_paths: 14
at 12 zero_duals: 2
Switching to elementary pricing
at12, LP obj: 6.739130434782608 n_added_paths: 1
at 12 zero_duals: 3
Switching to elementary pricing
at12, LP obj: 6.730769230769231 n_added_paths: 6
at 12 zero_duals: 2
Switching to elementary pricing
at12, LP obj: 6.72972972972973 n_added_paths: 1
at 12 zero_duals: 2
Switching to elementary pricing
at12, LP obj: 6.728 n_added_paths: 0
at 13 zero_duals: 2
Switching to elementary pricing
at13, LP obj: 6.666666666666667 n_added_paths: 0
at 16 zero_duals: 4
Switching to elementary pricing
at16, LP obj: 6.714285714285714 n_added_paths: 20
at 16 zero_duals: 4
Switching to elementary pricing
at16, LP obj: 6.695652173913044 n_added_paths: 0
at 18 zero_duals: 2
Switching to elementary pricing
at18, LP obj: 6.696428571428571 n_added_paths: 0
at 20 zero_duals: 4
Switching to elementary pricing
at20, LP obj: 6.782608695652174 n_added_paths: 3
at 20 zero_duals: 4
Switching to elementary pricing
at20, LP obj: 6.777777777777778 n_added_paths: 0
at 22 zero_duals: 3
Switching to elementary pricing
at22, LP obj: 6.8 n_added_paths: 1
at 22 zero_duals: 3
Switching to elementary pricing
at22, LP obj: 6.8 n_added_paths: 0
at 24 zero_duals: 3
Switching to elementary pricing
at24, LP obj: 6.8 n_added_paths: 0
at 25 zero_duals: 4
Switching to elementary pricing
at25, LP obj: 6.904761904761905 n_added_paths: 9
at 25 zero_duals: 6
Switching to elementary pricing
at25, LP obj: 6.888888888888889 n_added_paths: 0
Best solution found:
t_[27, 16, 25, 1, 5, 27] 1.0 1.0
checking cycle [27, 16, 25, 1, 5, 27]
[27, 16, 25, 1, 5, 27] 280 198
[13, 33, 7, 23, 13] 1.0 1.0
checking cycle [13, 33, 7, 23, 13]
[13, 33, 7, 23, 13] 230 177
[18, 29, 19, 22, 18] 1.0 1.0
checking cycle [18, 29, 19, 22, 18]
[18, 29, 19, 22, 18] 271 229
[20, 31, 14, 20] 1.0 1.0
checking cycle [20, 31, 14, 20]
[20, 31, 14, 20] 245 237
[24, 0, 12, 30, 32, 28, 24] 1.0 1.0
checking cycle [24, 0, 12, 30, 32, 28, 24]
[24, 0, 12, 30, 32, 28, 24] 234 215
[2, 17, 6, 15, 3, 8, 2] 1.0 1.0
checking cycle [2, 17, 6, 15, 3, 8, 2]
[2, 17, 6, 15, 3, 8, 2] 425 418
[9, 4, 21, 10, 26, 11, 9] 1.0 1.0
checking cycle [9, 4, 21, 10, 26, 11, 9]
[9, 4, 21, 10, 26, 11, 9] 294 271
